p cnf 15 30
1 -2 3 0
-1 4 5 0
2 -3 6 0
-4 5 -6 0
1 -7 8 0
-2 6 -9 0
3 -10 11 0
-5 7 -12 0
4 13 -14 0
-6 -8 15 0
9 -10 -11 0
12 -13 -14 0
-1 2 -3 0
4 -5 6 0
-7 -8 9 0
10 -11 -12 0
13 -14 15 0
-1 -4 -7 0
2 5 8 0
-3 -6 -9 0
10 13 -15 0
-11 -14 1 0
-2 -5 7 0
3 6 -8 0
9 -12 14 0
-10 13 2 0
-4 11 15 0
-3 -7 -11 0
5 9 13 0
-6 -8 12 0